79
0
44
54
50
24
37
4
70
30
71
41
93
25
86
91
20
64
47
31
38
53
60
72
45
81
83
39
68
40
77
15
10
21
87
67
26
13
52
35
12
5
22
66
46
76
34
97
89
1
18
3
99
63
16
55
92
58
33
9
80
49
29
36
14
94
73
28
85
8
48
74
57
32
90
78
75
7
56
84
88
23
69
6
17
98
61
19
27
59
65
11
95
96
62
82
43
51
2
42
